# 18447
param k := 6;
param n := 60;
param s := 1;
set E :=  (0,12) (1,17) (2,15) (3,13) (3,58) (4,19) (4,20) (4,30) (5,36) (5,49) (6,48) (7,48) (8,18) (9,12) (9,40) (10,26) (11,15) (11,31) (11,51) (12,32) (12,57) (13,33) (14,23) (15,43) (16,31) (16,43) (17,23) (18,36) (18,52) (19,47) (20,23) (21,32) (22,30) (22,50) (22,57) (24,43) (25,38) (26,37) (26,49) (27,31) (28,30) (29,34) (29,37) (29,48) (31,32) (31,39) (31,53) (33,40) (34,45) (35,48) (35,54) (36,41) (36,44) (36,50) (36,59) (38,42) (38,48) (38,56) (39,45) (42,58) (46,54) (47,48) (51,56) (55,59);